id: 1047
name: dc1l
group: miplib2010
method: 2

Gurobi 7.0.2 (linux64, Matlab) logging started Mon Mar 26 10:13:38 2018


Gurobi 7.0.2 (linux64) logging started Mon Mar 26 10:13:38 2018

Optimize a model with 1653 rows, 37297 columns and 448754 nonzeros
Coefficient statistics:
  Matrix range     [1e+00, 1e+02]
  Objective range  [1e+02, 1e+07]
  Bounds range     [1e+00, 1e+00]
  RHS range        [1e+00, 2e+03]
Presolve removed 3 rows and 1801 columns
Presolve time: 0.13s
Presolved: 1650 rows, 35496 columns, 424338 nonzeros

Ordering time: 0.08s

Barrier statistics:
 AA' NZ     : 2.153e+05
 Factor NZ  : 7.649e+05 (roughly 20 MBytes of memory)
 Factor Ops : 4.662e+08 (less than 1 second per iteration)
 Threads    : 4

                  Objective                Residual
Iter       Primal          Dual         Primal    Dual     Compl     Time
   0   1.20426238e+10 -4.79012689e+10  7.58e+05 2.33e-10  4.09e+07     0s
   1   4.42738661e+09 -4.69565361e+10  2.45e+05 3.51e+05  1.38e+07     0s
   2   3.29465379e+09 -4.19861855e+10  2.76e+04 2.82e+05  2.14e+06     0s
   3   2.48290657e+09 -2.88749050e+10  2.20e+03 1.37e+05  5.95e+05     0s
   4   1.82124131e+09 -8.13984406e+09  1.26e+02 3.36e+04  1.56e+05     0s
   5   4.28912281e+08 -4.97739332e+08  4.28e+00 1.07e+03  1.36e+04     0s
   6   7.04290346e+07 -2.34208115e+08  7.90e-01 2.59e+02  4.43e+03     0s
   7   2.51057265e+07 -1.52954641e+08  3.24e-01 8.10e+01  2.58e+03     0s
   8   2.36313293e+07 -1.11393328e+08  3.02e-01 5.64e+01  1.96e+03     1s
   9   1.17455997e+07 -7.56083931e+07  1.93e-01 3.56e+01  1.27e+03     1s
  10   3.64901734e+06 -3.91421547e+07  7.79e-02 1.73e+01  6.20e+02     1s
  11   2.50533821e+06 -1.89287842e+07  2.43e-02 7.60e+00  3.10e+02     1s
  12   2.20026750e+06 -2.72381715e+06  2.01e-06 1.09e+00  7.12e+01     1s
  13   1.99751500e+06  1.10316303e+06  4.86e-09 1.98e-01  1.29e+01     1s
  14   1.98971643e+06  1.17556132e+06  2.30e-10 1.78e-01  1.18e+01     1s
  15   1.97570028e+06  1.22070757e+06  1.77e-10 1.63e-01  1.09e+01     1s
  16   1.89252022e+06  1.43009272e+06  9.01e-11 1.03e-01  6.68e+00     1s
  17   1.83961380e+06  1.57280370e+06  4.20e-11 5.59e-02  3.86e+00     1s
  18   1.80714823e+06  1.64317981e+06  2.04e-11 3.47e-02  2.37e+00     1s
  19   1.79138355e+06  1.67539664e+06  1.42e-11 2.41e-02  1.68e+00     1s
  20   1.78119077e+06  1.69984450e+06  1.07e-11 1.57e-02  1.18e+00     1s
  21   1.76290350e+06  1.71590801e+06  4.93e-12 9.32e-03  6.79e-01     1s
  22   1.75247010e+06  1.73397340e+06  1.87e-12 3.24e-03  2.67e-01     1s
  23   1.74799655e+06  1.73930745e+06  7.30e-13 1.52e-03  1.26e-01     1s
  24   1.74582251e+06  1.74179317e+06  2.32e-13 7.73e-04  5.82e-02     1s
  25   1.74502913e+06  1.74328338e+06  4.09e-14 3.52e-04  2.52e-02     1s
  26   1.74474285e+06  1.74414245e+06  9.84e-14 1.15e-04  8.67e-03     1s
  27   1.74463290e+06  1.74446379e+06  7.97e-14 3.15e-05  2.44e-03     1s
  28   1.74460395e+06  1.74455552e+06  1.09e-12 8.10e-06  7.00e-04     1s
  29   1.74459914e+06  1.74456814e+06  2.24e-12 5.27e-06  4.48e-04     1s
  30   1.74459665e+06  1.74458226e+06  4.48e-12 2.17e-06  2.08e-04     1s
  31   1.74459293e+06  1.74458848e+06  3.80e-12 7.14e-07  6.43e-05     1s
  32   1.74459184e+06  1.74459156e+06  1.12e-11 1.39e-08  4.13e-06     1s
  33   1.74459170e+06  1.74459167e+06  1.09e-09 1.69e-09  3.32e-07     1s
  34   1.74459169e+06  1.74459169e+06  5.29e-10 2.33e-10  3.17e-09     1s

Barrier solved model in 34 iterations and 1.13 seconds
Optimal objective 1.74459169e+06

Crossover log...

       0 DPushes remaining with DInf 5.4753444e-07                 1s

      61 PPushes remaining with PInf 0.0000000e+00                 1s
       0 PPushes remaining with PInf 0.0000000e+00                 1s

  Push phase complete: Pinf 0.0000000e+00, Dinf 6.9674293e-09      1s

Iteration    Objective       Primal Inf.    Dual Inf.      Time
    1002    1.7445917e+06   0.000000e+00   0.000000e+00      1s
    1002    1.7445917e+06   0.000000e+00   0.000000e+00      1s

Solved in 1002 iterations and 1.21 seconds
Optimal objective  1.744591693e+06
status: OPTIMAL
